c colouring generated by benchmark framework
p edge 125 3891
v 1 17
v 2 20
v 3 13
v 4 25
v 5 25
v 6 24
v 7 18
v 8 6
v 9 22
v 10 16
v 11 15
v 12 20
v 13 18
v 14 26
v 15 26
v 16 3
v 17 7
v 18 9
v 19 1
v 20 13
v 21 4
v 22 2
v 23 12
v 24 5
v 25 20
v 26 15
v 27 14
v 28 26
v 29 15
v 30 2
v 31 7
v 32 16
v 33 12
v 34 6
v 35 19
v 36 19
v 37 25
v 38 13
v 39 12
v 40 8
v 41 24
v 42 16
v 43 14
v 44 17
v 45 0
v 46 14
v 47 8
v 48 2
v 49 7
v 50 12
v 51 1
v 52 10
v 53 0
v 54 11
v 55 7
v 56 15
v 57 21
v 58 13
v 59 2
v 60 7
v 61 16
v 62 14
v 63 17
v 64 5
v 65 6
v 66 18
v 67 10
v 68 26
v 69 0
v 70 10
v 71 1
v 72 2
v 73 24
v 74 23
v 75 0
v 76 10
v 77 15
v 78 24
v 79 24
v 80 8
v 81 14
v 82 3
v 83 24
v 84 23
v 85 21
v 86 23
v 87 11
v 88 17
v 89 17
v 90 23
v 91 22
v 92 4
v 93 12
v 94 5
v 95 4
v 96 9
v 97 3
v 98 15
v 99 22
v 100 16
v 101 11
v 102 22
v 103 6
v 104 10
v 105 1
v 106 4
v 107 0
v 108 3
v 109 9
v 110 21
v 111 26
v 112 12
v 113 6
v 114 3
v 115 5
v 116 22
v 117 4
v 118 9
v 119 19
v 120 20
v 121 12
v 122 21
v 123 1
v 124 16
v 125 8
